c description: Random 3-CNF over 8 variables and 24 clauses
p cnf 8 24
1 -6 7 0
-3 4 -8 0
3 -5 -8 0
-2 -3 6 0
1 -4 -6 0
-1 3 7 0
-1 -5 6 0
2 3 5 0
-2 3 7 0
-3 -4 -8 0
-1 -3 -6 0
1 5 -6 0
-2 4 6 0
3 5 -8 0
-1 -2 -5 0
2 -3 4 0
-6 7 8 0
-1 -6 -8 0
4 5 7 0
4 -6 7 0
1 -4 6 0
-1 -6 8 0
1 4 6 0
-2 -3 4 0